certificates/rado_a15_c145_N43.cnf
c Rad2 upper bound instance: x1 + 15*x2 - x3 = 145, interval [1,43]
p cnf 43 246
1 6 10 0
-1 -6 -10 0
1 11 21 0
-1 -11 -21 0
1 12 36 0
-1 -12 -36 0
2 7 10 0
-2 -7 -10 0
2 11 22 0
-2 -11 -22 0
2 12 37 0
-2 -12 -37 0
3 8 10 0
-3 -8 -10 0
3 11 23 0
-3 -11 -23 0
3 12 38 0
-3 -12 -38 0
4 9 10 0
-4 -9 -10 0
4 11 24 0
-4 -11 -24 0
4 12 39 0
-4 -12 -39 0
5 10 0
-5 -10 0
5 11 25 0
-5 -11 -25 0
5 12 40 0
-5 -12 -40 0
6 10 11 0
-6 -10 -11 0
6 11 26 0
-6 -11 -26 0
6 12 41 0
-6 -12 -41 0
7 10 12 0
-7 -10 -12 0
7 11 27 0
-7 -11 -27 0
7 12 42 0
-7 -12 -42 0
8 10 13 0
-8 -10 -13 0
8 11 28 0
-8 -11 -28 0
8 12 43 0
-8 -12 -43 0
9 10 14 0
-9 -10 -14 0
9 11 29 0
-9 -11 -29 0
10 15 0
-10 -15 0
10 11 30 0
-10 -11 -30 0
1 9 11 0
-1 -9 -11 0
10 11 16 0
-10 -11 -16 0
11 31 0
-11 -31 0
2 9 12 0
-2 -9 -12 0
10 12 17 0
-10 -12 -17 0
11 12 32 0
-11 -12 -32 0
3 9 13 0
-3 -9 -13 0
10 13 18 0
-10 -13 -18 0
11 13 33 0
-11 -13 -33 0
4 9 14 0
-4 -9 -14 0
10 14 19 0
-10 -14 -19 0
11 14 34 0
-11 -14 -34 0
5 9 15 0
-5 -9 -15 0
10 15 20 0
-10 -15 -20 0
11 15 35 0
-11 -15 -35 0
6 9 16 0
-6 -9 -16 0
10 16 21 0
-10 -16 -21 0
11 16 36 0
-11 -16 -36 0
7 9 17 0
-7 -9 -17 0
10 17 22 0
-10 -17 -22 0
11 17 37 0
-11 -17 -37 0
8 9 18 0
-8 -9 -18 0
10 18 23 0
-10 -18 -23 0
11 18 38 0
-11 -18 -38 0
9 19 0
-9 -19 0
10 19 24 0
-10 -19 -24 0
11 19 39 0
-11 -19 -39 0
9 10 20 0
-9 -10 -20 0
10 20 25 0
-10 -20 -25 0
11 20 40 0
-11 -20 -40 0
9 11 21 0
-9 -11 -21 0
10 21 26 0
-10 -21 -26 0
11 21 41 0
-11 -21 -41 0
9 12 22 0
-9 -12 -22 0
10 22 27 0
-10 -22 -27 0
11 22 42 0
-11 -22 -42 0
9 13 23 0
-9 -13 -23 0
10 23 28 0
-10 -23 -28 0
11 23 43 0
-11 -23 -43 0
9 14 24 0
-9 -14 -24 0
10 24 29 0
-10 -24 -29 0
9 15 25 0
-9 -15 -25 0
10 25 30 0
-10 -25 -30 0
1 8 26 0
-1 -8 -26 0
9 16 26 0
-9 -16 -26 0
10 26 31 0
-10 -26 -31 0
2 8 27 0
-2 -8 -27 0
9 17 27 0
-9 -17 -27 0
10 27 32 0
-10 -27 -32 0
3 8 28 0
-3 -8 -28 0
9 18 28 0
-9 -18 -28 0
10 28 33 0
-10 -28 -33 0
4 8 29 0
-4 -8 -29 0
9 19 29 0
-9 -19 -29 0
10 29 34 0
-10 -29 -34 0
5 8 30 0
-5 -8 -30 0
9 20 30 0
-9 -20 -30 0
10 30 35 0
-10 -30 -35 0
6 8 31 0
-6 -8 -31 0
9 21 31 0
-9 -21 -31 0
10 31 36 0
-10 -31 -36 0
7 8 32 0
-7 -8 -32 0
9 22 32 0
-9 -22 -32 0
10 32 37 0
-10 -32 -37 0
8 33 0
-8 -33 0
9 23 33 0
-9 -23 -33 0
10 33 38 0
-10 -33 -38 0
8 9 34 0
-8 -9 -34 0
9 24 34 0
-9 -24 -34 0
10 34 39 0
-10 -34 -39 0
8 10 35 0
-8 -10 -35 0
9 25 35 0
-9 -25 -35 0
10 35 40 0
-10 -35 -40 0
8 11 36 0
-8 -11 -36 0
9 26 36 0
-9 -26 -36 0
10 36 41 0
-10 -36 -41 0
8 12 37 0
-8 -12 -37 0
9 27 37 0
-9 -27 -37 0
10 37 42 0
-10 -37 -42 0
8 13 38 0
-8 -13 -38 0
9 28 38 0
-9 -28 -38 0
10 38 43 0
-10 -38 -43 0
8 14 39 0
-8 -14 -39 0
9 29 39 0
-9 -29 -39 0
8 15 40 0
-8 -15 -40 0
9 30 40 0
-9 -30 -40 0
1 7 41 0
-1 -7 -41 0
8 16 41 0
-8 -16 -41 0
9 31 41 0
-9 -31 -41 0
2 7 42 0
-2 -7 -42 0
8 17 42 0
-8 -17 -42 0
9 32 42 0
-9 -32 -42 0
3 7 43 0
-3 -7 -43 0
8 18 43 0
-8 -18 -43 0
9 33 43 0
-9 -33 -43 0
