certificates/rado_a15_c145_N43.drat
10 -40 -42 0
-40 -41 -42 -43 0
15 40 -43 0
-41 -42 -43 0
d -40 -41 -42 -43 0
40 41 -43 0
-42 -43 0
d -41 -42 -43 0
15 -43 0
d 15 40 -43 0
-40 -43 0
-43 0
-15 0
10 0
-5 0
9 0
-4 0
-14 0
-19 0
-20 0
-12 0
40 0
8 0
39 0
-35 0
-30 0
-3 0
-13 0
-33 0
-18 0
-34 0
-29 0
11 0
7 0
38 0
-16 0
-31 0
-21 0
-1 0
-6 0
-36 0
-28 0
-2 0
-17 0
-27 0
-32 0
0
